(set-info :smt-lib-version 2.6)
(set-logic QF_FP)
(set-info :source |
Generated by: Chenqi Cui
Generated on: 2025-11-26
Generator: AutoSMTGen
Application: Generating SMT constraints with small solution spaces to make them challenging for SMT solvers
Target solver: Z3, CVC5, Bitwuzla
|)
(set-info :license "https://creativecommons.org/licenses/by/4.0/")
(set-info :category "industrial")
(set-info :status sat)
; benchmark generated from python API

(declare-fun x7 () (_ FloatingPoint 11 53))
(declare-fun x6 () (_ FloatingPoint 11 53))
(declare-fun x5 () (_ FloatingPoint 11 53))
(declare-fun x4 () (_ FloatingPoint 11 53))
(declare-fun x3 () (_ FloatingPoint 11 53))
(declare-fun x2 () (_ FloatingPoint 11 53))
(declare-fun x1 () (_ FloatingPoint 11 53))
(declare-fun x0 () (_ FloatingPoint 11 53))
(assert
 (let ((?x18 (fp.add roundNearestTiesToEven (fp.mul roundNearestTiesToEven (fp #b1 #b10000000100 #x0708ecaf6c909) x0) (fp.mul roundNearestTiesToEven (fp #b0 #b10000000100 #xb4f99aa8cba91) x1))))
 (let ((?x21 (fp.add roundNearestTiesToEven ?x18 (fp.mul roundNearestTiesToEven (fp #b0 #b10000000100 #xa167b2d78ef9c) x2))))
 (let ((?x24 (fp.add roundNearestTiesToEven ?x21 (fp.mul roundNearestTiesToEven (fp #b0 #b10000000011 #x4206c228308cf) x3))))
 (let ((?x27 (fp.add roundNearestTiesToEven ?x24 (fp.mul roundNearestTiesToEven (fp #b1 #b10000000100 #x33c01bc17d206) x4))))
 (let ((?x30 (fp.add roundNearestTiesToEven ?x27 (fp.mul roundNearestTiesToEven (fp #b0 #b10000000101 #x43e48f595d61f) x5))))
 (let ((?x33 (fp.add roundNearestTiesToEven ?x30 (fp.mul roundNearestTiesToEven (fp #b0 #b10000000100 #x67a26344191ab) x6))))
 (let ((?x36 (fp.add roundNearestTiesToEven ?x33 (fp.mul roundNearestTiesToEven (fp #b0 #b10000000101 #x6a95acb53517a) x7))))
 (fp.leq ?x36 (fp #b0 #b10000000100 #x65e2c0a17a2ae))))))))))
(assert
 (let ((?x60 (fp.add roundNearestTiesToEven (fp.mul roundNearestTiesToEven (fp #b0 #b10000000100 #xeb0e9f04961f8) x0) (fp.mul roundNearestTiesToEven (fp #b1 #b10000000101 #x4c864e70fc1ca) x1))))
 (let ((?x63 (fp.add roundNearestTiesToEven ?x60 (fp.mul roundNearestTiesToEven (fp #b1 #b10000000011 #x8e0cf8bc56c51) x2))))
 (let ((?x66 (fp.add roundNearestTiesToEven ?x63 (fp.mul roundNearestTiesToEven (fp #b1 #b10000000100 #xfa788e7134045) x3))))
 (let ((?x69 (fp.add roundNearestTiesToEven ?x66 (fp.mul roundNearestTiesToEven (fp #b0 #b10000000100 #x2936574ead57d) x4))))
 (let ((?x72 (fp.add roundNearestTiesToEven ?x69 (fp.mul roundNearestTiesToEven (fp #b1 #b10000000000 #x7ea8c0bc21483) x5))))
 (let ((?x75 (fp.add roundNearestTiesToEven ?x72 (fp.mul roundNearestTiesToEven (fp #b0 #b10000000100 #x2d24155423a9b) x6))))
 (let ((?x78 (fp.add roundNearestTiesToEven ?x75 (fp.mul roundNearestTiesToEven (fp #b0 #b10000000101 #x11b5f683ba646) x7))))
 (fp.leq ?x78 (fp #b1 #b10000000101 #x987ba8ccb899f))))))))))
(assert
 (let ((?x85 (fp.add roundNearestTiesToEven (fp.mul roundNearestTiesToEven (fp #b0 #b10000000011 #x08908fe53a783) x0) (fp.mul roundNearestTiesToEven (fp #b1 #b10000000010 #xb59aefa262aa1) x1))))
 (let ((?x88 (fp.add roundNearestTiesToEven ?x85 (fp.mul roundNearestTiesToEven (fp #b1 #b10000000010 #x9b92d199a13bd) x2))))
 (let ((?x91 (fp.add roundNearestTiesToEven ?x88 (fp.mul roundNearestTiesToEven (fp #b1 #b10000000101 #x68be9cda3fc61) x3))))
 (let ((?x94 (fp.add roundNearestTiesToEven ?x91 (fp.mul roundNearestTiesToEven (fp #b1 #b10000000011 #xe5a457d7684e0) x4))))
 (let ((?x97 (fp.add roundNearestTiesToEven ?x94 (fp.mul roundNearestTiesToEven (fp #b0 #b10000000011 #x3c9d318d37c39) x5))))
 (let ((?x100 (fp.add roundNearestTiesToEven ?x97 (fp.mul roundNearestTiesToEven (fp #b0 #b10000000101 #x6ad80eebabdf0) x6))))
 (let ((?x103 (fp.add roundNearestTiesToEven ?x100 (fp.mul roundNearestTiesToEven (fp #b0 #b10000000011 #xb78316087a554) x7))))
 (fp.leq ?x103 (fp #b1 #b10000000101 #x7755f58e81b7e))))))))))
(assert
 (let ((?x110 (fp.add roundNearestTiesToEven (fp.mul roundNearestTiesToEven (fp #b1 #b10000000100 #xc344deb6f65c0) x0) (fp.mul roundNearestTiesToEven (fp #b0 #b10000000100 #x0783588201d7e) x1))))
 (let ((?x113 (fp.add roundNearestTiesToEven ?x110 (fp.mul roundNearestTiesToEven (fp #b1 #b10000000100 #x6b18f8bb7ba76) x2))))
 (let ((?x116 (fp.add roundNearestTiesToEven ?x113 (fp.mul roundNearestTiesToEven (fp #b1 #b10000000011 #xa6d3e1f1d29cf) x3))))
 (let ((?x119 (fp.add roundNearestTiesToEven ?x116 (fp.mul roundNearestTiesToEven (fp #b1 #b10000000010 #x3df39d175d4ca) x4))))
 (let ((?x122 (fp.add roundNearestTiesToEven ?x119 (fp.mul roundNearestTiesToEven (fp #b0 #b10000000011 #x849baaf998090) x5))))
 (let ((?x125 (fp.add roundNearestTiesToEven ?x122 (fp.mul roundNearestTiesToEven (fp #b1 #b10000000101 #x66f2a1bd4aaa3) x6))))
 (let ((?x128 (fp.add roundNearestTiesToEven ?x125 (fp.mul roundNearestTiesToEven (fp #b1 #b10000000011 #x1449f4b5eaff4) x7))))
 (fp.leq ?x128 (fp #b1 #b10000000101 #x37e4786d9a7f3))))))))))
(assert
 (let ((?x135 (fp.add roundNearestTiesToEven (fp.mul roundNearestTiesToEven (fp #b1 #b10000000011 #xb1c1b034322a3) x0) (fp.mul roundNearestTiesToEven (fp #b1 #b10000000100 #xff556bb0ee3a6) x1))))
 (let ((?x138 (fp.add roundNearestTiesToEven ?x135 (fp.mul roundNearestTiesToEven (fp #b0 #b01111111110 #xeda2d18e64442) x2))))
 (let ((?x141 (fp.add roundNearestTiesToEven ?x138 (fp.mul roundNearestTiesToEven (fp #b0 #b10000000100 #xc847d9befcb9a) x3))))
 (let ((?x144 (fp.add roundNearestTiesToEven ?x141 (fp.mul roundNearestTiesToEven (fp #b1 #b10000000101 #x333c89dfc71ad) x4))))
 (let ((?x147 (fp.add roundNearestTiesToEven ?x144 (fp.mul roundNearestTiesToEven (fp #b1 #b10000000100 #xc204fd2856ac9) x5))))
 (let ((?x150 (fp.add roundNearestTiesToEven ?x147 (fp.mul roundNearestTiesToEven (fp #b0 #b10000000101 #x14818f9513c41) x6))))
 (let ((?x153 (fp.add roundNearestTiesToEven ?x150 (fp.mul roundNearestTiesToEven (fp #b1 #b10000000100 #xe3878e305e839) x7))))
 (fp.leq ?x153 (fp #b0 #b10000000101 #x1d69b8a6cbbec))))))))))
(assert
 (let ((?x160 (fp.add roundNearestTiesToEven (fp.mul roundNearestTiesToEven (fp #b1 #b10000000101 #x4515a0131d72e) x0) (fp.mul roundNearestTiesToEven (fp #b0 #b10000000100 #x087391e956bd5) x1))))
 (let ((?x163 (fp.add roundNearestTiesToEven ?x160 (fp.mul roundNearestTiesToEven (fp #b1 #b10000000101 #x7c0d4270f7ed5) x2))))
 (let ((?x166 (fp.add roundNearestTiesToEven ?x163 (fp.mul roundNearestTiesToEven (fp #b1 #b10000000100 #xd55d014d7838e) x3))))
 (let ((?x169 (fp.add roundNearestTiesToEven ?x166 (fp.mul roundNearestTiesToEven (fp #b1 #b10000000100 #x46e72fcb5d80f) x4))))
 (let ((?x172 (fp.add roundNearestTiesToEven ?x169 (fp.mul roundNearestTiesToEven (fp #b0 #b10000000011 #x8985d883ee086) x5))))
 (let ((?x175 (fp.add roundNearestTiesToEven ?x172 (fp.mul roundNearestTiesToEven (fp #b0 #b10000000101 #x05688b416a2fc) x6))))
 (let ((?x178 (fp.add roundNearestTiesToEven ?x175 (fp.mul roundNearestTiesToEven (fp #b0 #b10000000010 #x2b35737422b8e) x7))))
 (fp.leq ?x178 (fp #b0 #b10000000100 #x7fb6acc8eea03))))))))))
(assert
 (let ((?x185 (fp.add roundNearestTiesToEven (fp.mul roundNearestTiesToEven (fp #b1 #b10000000001 #x4d0018cf9e6ab) x0) (fp.mul roundNearestTiesToEven (fp #b1 #b10000000001 #x01b6edebba390) x1))))
 (let ((?x188 (fp.add roundNearestTiesToEven ?x185 (fp.mul roundNearestTiesToEven (fp #b0 #b10000000011 #x7c36fe4edbebc) x2))))
 (let ((?x191 (fp.add roundNearestTiesToEven ?x188 (fp.mul roundNearestTiesToEven (fp #b1 #b10000000101 #x0da0f2e351dc8) x3))))
 (let ((?x194 (fp.add roundNearestTiesToEven ?x191 (fp.mul roundNearestTiesToEven (fp #b0 #b10000000100 #xe2b466f1b7f37) x4))))
 (let ((?x197 (fp.add roundNearestTiesToEven ?x194 (fp.mul roundNearestTiesToEven (fp #b0 #b10000000001 #xed87df7aab606) x5))))
 (let ((?x200 (fp.add roundNearestTiesToEven ?x197 (fp.mul roundNearestTiesToEven (fp #b1 #b10000000101 #x4a8213a67dc9c) x6))))
 (let ((?x203 (fp.add roundNearestTiesToEven ?x200 (fp.mul roundNearestTiesToEven (fp #b1 #b10000000101 #x73026772d8081) x7))))
 (fp.leq ?x203 (fp #b0 #b10000000101 #x3f1512988dd32))))))))))
(assert
 (let ((?x210 (fp.add roundNearestTiesToEven (fp.mul roundNearestTiesToEven (fp #b1 #b10000000101 #x71fc8ce1042d0) x0) (fp.mul roundNearestTiesToEven (fp #b1 #b10000000010 #x8430a07870293) x1))))
 (let ((?x213 (fp.add roundNearestTiesToEven ?x210 (fp.mul roundNearestTiesToEven (fp #b1 #b10000000011 #xe777bd34a47fd) x2))))
 (let ((?x216 (fp.add roundNearestTiesToEven ?x213 (fp.mul roundNearestTiesToEven (fp #b0 #b10000000101 #x8f916cb913b13) x3))))
 (let ((?x219 (fp.add roundNearestTiesToEven ?x216 (fp.mul roundNearestTiesToEven (fp #b0 #b10000000101 #x2dbc6d752b23a) x4))))
 (let ((?x222 (fp.add roundNearestTiesToEven ?x219 (fp.mul roundNearestTiesToEven (fp #b1 #b10000000100 #xd60514660e7c2) x5))))
 (let ((?x225 (fp.add roundNearestTiesToEven ?x222 (fp.mul roundNearestTiesToEven (fp #b0 #b10000000011 #xfcd7a025c54ab) x6))))
 (let ((?x228 (fp.add roundNearestTiesToEven ?x225 (fp.mul roundNearestTiesToEven (fp #b1 #b10000000101 #x015eeea4a48ec) x7))))
 (fp.leq ?x228 (fp #b0 #b10000000001 #x99424a37d0cfd))))))))))
(assert
 (let ((?x235 (fp.add roundNearestTiesToEven (fp.mul roundNearestTiesToEven (fp #b1 #b01111111111 #x0097a1a9c1551) x0) (fp.mul roundNearestTiesToEven (fp #b0 #b10000000101 #x057399366cb79) x1))))
 (let ((?x238 (fp.add roundNearestTiesToEven ?x235 (fp.mul roundNearestTiesToEven (fp #b0 #b10000000100 #xefe7bc3e45a81) x2))))
 (let ((?x241 (fp.add roundNearestTiesToEven ?x238 (fp.mul roundNearestTiesToEven (fp #b0 #b10000000100 #xeae0fe30a07bd) x3))))
 (let ((?x244 (fp.add roundNearestTiesToEven ?x241 (fp.mul roundNearestTiesToEven (fp #b0 #b10000000011 #xb52eef3cdcad6) x4))))
 (let ((?x247 (fp.add roundNearestTiesToEven ?x244 (fp.mul roundNearestTiesToEven (fp #b1 #b10000000100 #xfa68a5469381d) x5))))
 (let ((?x250 (fp.add roundNearestTiesToEven ?x247 (fp.mul roundNearestTiesToEven (fp #b0 #b10000000101 #x38ffea621322f) x6))))
 (let ((?x253 (fp.add roundNearestTiesToEven ?x250 (fp.mul roundNearestTiesToEven (fp #b1 #b10000000100 #x694898c5e598b) x7))))
 (fp.leq ?x253 (fp #b0 #b10000000100 #xa4ce0c1dcd0bb))))))))))
(assert
 (let ((?x260 (fp.add roundNearestTiesToEven (fp.mul roundNearestTiesToEven (fp #b0 #b10000000100 #x6398bf04f916b) x0) (fp.mul roundNearestTiesToEven (fp #b0 #b10000000100 #xabaeeacebfe03) x1))))
 (let ((?x263 (fp.add roundNearestTiesToEven ?x260 (fp.mul roundNearestTiesToEven (fp #b1 #b10000000100 #x69e139c3d9b39) x2))))
 (let ((?x266 (fp.add roundNearestTiesToEven ?x263 (fp.mul roundNearestTiesToEven (fp #b0 #b10000000100 #x8071efbb59db6) x3))))
 (let ((?x269 (fp.add roundNearestTiesToEven ?x266 (fp.mul roundNearestTiesToEven (fp #b0 #b10000000101 #x62e167cae129b) x4))))
 (let ((?x272 (fp.add roundNearestTiesToEven ?x269 (fp.mul roundNearestTiesToEven (fp #b0 #b10000000100 #x15525e41483b6) x5))))
 (let ((?x275 (fp.add roundNearestTiesToEven ?x272 (fp.mul roundNearestTiesToEven (fp #b0 #b10000000101 #x4520e5b71f479) x6))))
 (let ((?x278 (fp.add roundNearestTiesToEven ?x275 (fp.mul roundNearestTiesToEven (fp #b1 #b10000000101 #x7195b5dc24f02) x7))))
 (fp.leq ?x278 (fp #b1 #b10000000101 #x44632986e0e13))))))))))
(assert
 (let ((?x285 (fp.add roundNearestTiesToEven (fp.mul roundNearestTiesToEven (fp #b0 #b10000000101 #x60cab96ed39b6) x0) (fp.mul roundNearestTiesToEven (fp #b1 #b10000000010 #xcade3261dd721) x1))))
(let ((?x288 (fp.add roundNearestTiesToEven ?x285 (fp.mul roundNearestTiesToEven (fp #b1 #b10000000011 #x5c02ee92c48d6) x2))))
(let ((?x291 (fp.add roundNearestTiesToEven ?x288 (fp.mul roundNearestTiesToEven (fp #b0 #b10000000101 #x238921c0ac26a) x3))))
(let ((?x294 (fp.add roundNearestTiesToEven ?x291 (fp.mul roundNearestTiesToEven (fp #b1 #b10000000100 #xfd9acf1d2a92f) x4))))
(let ((?x297 (fp.add roundNearestTiesToEven ?x294 (fp.mul roundNearestTiesToEven (fp #b0 #b10000000011 #x528645d8735f4) x5))))
(let ((?x300 (fp.add roundNearestTiesToEven ?x297 (fp.mul roundNearestTiesToEven (fp #b1 #b01111111111 #xfb7a03cfe750d) x6))))
(let ((?x303 (fp.add roundNearestTiesToEven ?x300 (fp.mul roundNearestTiesToEven (fp #b0 #b10000000101 #x7021db8f81d33) x7))))
(fp.leq ?x303 (fp #b0 #b10000000101 #x69e0130b6f2d7))))))))))
(check-sat)
(exit)
